U                                       
   18.0000000000000     
     1.0000000000000000    0.0000000000000000    0.0000000000000000
     0.0000000000000000    1.0000000000000000    0.0000000000000000
     0.0000000000000000    0.0000000000000000    1.0000000000000000
   U 
    38
Selective dynamics
Direct
  0.7440882324344597  0.5374320348606627  0.4937758113587807   T   T   T
  0.5462822671850056  0.7486411909790385  0.4997227501136183   T   T   T
  0.2948775667713055  0.5676766939688327  0.4982258767880380   T   T   T
  0.4025535797308084  0.7291947948864799  0.4963602324313817   T   T   T
  0.2737831897418178  0.4056300513430008  0.5039213984557156   T   T   T
  0.4278560851500137  0.2767899169985185  0.4964851039857490   T   T   T
  0.7242737889910318  0.3966323809840167  0.5105761282492688   T   T   T
  0.5733991114126052  0.2841195094735986  0.5021307691771978   T   T   T
  0.6874816485749667  0.4919978465768751  0.6481724682732609   T   T   T
  0.3090253308055556  0.5005449081158843  0.6386309813341029   T   T   T
  0.5064588940869070  0.6881677758456614  0.6229216178665925   T   T   T
  0.4920505511562300  0.3137313585644210  0.6393829443599610   T   T   T
  0.6821203996677521  0.6728352328520568  0.6201167069402326   T   T   T
  0.3527208238610000  0.6373699441550046  0.6421381095587653   T   T   T
  0.3255144430434125  0.3319048828196679  0.6237929351028778   T   T   T
  0.6442808584220266  0.3471574171095040  0.6489572797751020   T   T   T
  0.6848544204406163  0.4963210143570797  0.3686102083837203   T   T   T
  0.3113386164932069  0.5023040633792055  0.3697309602795676   T   T   T
  0.4917633443173421  0.6907179472547826  0.3523495794444593   T   T   T
  0.5030147997854365  0.3151790462425727  0.3649700317978086   T   T   T
  0.6266800027535619  0.6578304997365020  0.3896573842990305   T   T   T
  0.3275239094136708  0.6621699004910448  0.3632392325270096   T   T   T
  0.3493696960954069  0.3455936266005938  0.3581579437328883   T   T   T
  0.6580314309327930  0.3500094130247781  0.3670730620891675   T   T   T
  0.6047202414488901  0.5939692974707745  0.7063108903483249   T   T   T
  0.4392318082727724  0.5607321856038060  0.7258255707013456   T   T   T
  0.4043294888476209  0.4011391587750088  0.7171180267688690   T   T   T
  0.5628384278501506  0.4310022978459074  0.7284687800950199   T   T   T
  0.5642701574329064  0.5716773416265207  0.2745628295897785   T   T   T
  0.4018326527448484  0.5910361527487009  0.2708436242060828   T   T   T
  0.4330237264452785  0.4357968661566748  0.2878333804886772   T   T   T
  0.5905580121163473  0.4068608453824993  0.2606178193730715   T   T   T
  0.4896110861619665  0.5115535023641774  0.6000798859538446   T   T   T
  0.4129238068721620  0.4203137495797981  0.5008118436371496   T   T   T
  0.4359939123659901  0.5930601055666419  0.4853645935481351   T   T   T
  0.5146436207016032  0.5032006898622947  0.3868430551453691   T   T   T
  0.6184682865634652  0.5996667217823277  0.5202764965876029   T   T   T
  0.5855422629853340  0.4273700920598964  0.5079481923873530   T   T   T
 
  0.00000000E+00  0.00000000E+00  0.00000000E+00
  0.00000000E+00  0.00000000E+00  0.00000000E+00
  0.00000000E+00  0.00000000E+00  0.00000000E+00
  0.00000000E+00  0.00000000E+00  0.00000000E+00
  0.00000000E+00  0.00000000E+00  0.00000000E+00
  0.00000000E+00  0.00000000E+00  0.00000000E+00
  0.00000000E+00  0.00000000E+00  0.00000000E+00
  0.00000000E+00  0.00000000E+00  0.00000000E+00
  0.00000000E+00  0.00000000E+00  0.00000000E+00
  0.00000000E+00  0.00000000E+00  0.00000000E+00
  0.00000000E+00  0.00000000E+00  0.00000000E+00
  0.00000000E+00  0.00000000E+00  0.00000000E+00
  0.00000000E+00  0.00000000E+00  0.00000000E+00
  0.00000000E+00  0.00000000E+00  0.00000000E+00
  0.00000000E+00  0.00000000E+00  0.00000000E+00
  0.00000000E+00  0.00000000E+00  0.00000000E+00
  0.00000000E+00  0.00000000E+00  0.00000000E+00
  0.00000000E+00  0.00000000E+00  0.00000000E+00
  0.00000000E+00  0.00000000E+00  0.00000000E+00
  0.00000000E+00  0.00000000E+00  0.00000000E+00
  0.00000000E+00  0.00000000E+00  0.00000000E+00
  0.00000000E+00  0.00000000E+00  0.00000000E+00
  0.00000000E+00  0.00000000E+00  0.00000000E+00
  0.00000000E+00  0.00000000E+00  0.00000000E+00
  0.00000000E+00  0.00000000E+00  0.00000000E+00
  0.00000000E+00  0.00000000E+00  0.00000000E+00
  0.00000000E+00  0.00000000E+00  0.00000000E+00
  0.00000000E+00  0.00000000E+00  0.00000000E+00
  0.00000000E+00  0.00000000E+00  0.00000000E+00
  0.00000000E+00  0.00000000E+00  0.00000000E+00
  0.00000000E+00  0.00000000E+00  0.00000000E+00
  0.00000000E+00  0.00000000E+00  0.00000000E+00
  0.00000000E+00  0.00000000E+00  0.00000000E+00
  0.00000000E+00  0.00000000E+00  0.00000000E+00
  0.00000000E+00  0.00000000E+00  0.00000000E+00
  0.00000000E+00  0.00000000E+00  0.00000000E+00
  0.00000000E+00  0.00000000E+00  0.00000000E+00
  0.00000000E+00  0.00000000E+00  0.00000000E+00
