SYSTEM = Pt cube particle
IBRION=-1
POTIM=0.1
ISYM=0
#ISMEAR=-1;SIGMA=.1
NSW=0
EDIFF=1.0E-04
EDIFFG=-0.005
ENMAX=274.0
PREC=Normal
LREAL=Auto
#ISPIN=2
ISIF=0
LWAVE=.TRUE.
LCHARG=.FALSE.
LPLANE=.TRUE.
IALGO=38
NCORE=4
